words_hard_train/7819.qaiger
aag 93 18 0 1 75
2
4
8
12
20
22
26
30
72
80
96
104
120
128
130
154
162
164
186
6 2 4
10 6 8
14 11 13
16 10 12
18 15 17
24 21 23
28 24 27
32 29 30
34 28 31
36 33 35
38 18 36
40 2 21
42 41 22
44 42 5
46 25 7
48 45 46
50 7 9
52 51 11
54 25 26
56 55 29
58 53 57
60 48 59
62 39 61
64 52 56
66 62 65
68 19 37
70 67 69
74 17 73
76 16 72
78 75 77
82 35 80
84 34 81
86 83 85
88 78 86
90 71 89
92 79 87
94 91 93
98 77 97
100 76 96
102 99 101
106 85 104
108 84 105
110 107 109
112 102 110
114 95 113
116 103 111
118 115 117
122 101 121
124 100 120
126 123 125
132 128 131
134 129 130
136 133 135
138 137 109
140 136 108
142 139 141
144 126 142
146 119 145
148 127 143
150 147 149
152 150 140
156 124 155
158 125 154
160 157 159
166 162 165
168 163 164
170 167 169
172 160 171
174 153 173
176 151 141
178 161 170
180 177 179
182 174 181
184 152 172
186 183 185
i0 1 x1[0]
i1 1 x1[1]
i2 1 x1[2]
i3 1 x1[3]
i4 2 y1[0]
i5 2 y1[1]
i6 2 y1[2]
i7 2 y1[3]
i8 1 x1[4]
i9 2 y1[4]
i10 1 x1[5]
i11 2 y1[5]
i12 1 x1[6]
i13 1 x2[0]
i14 2 y1[6]
i15 1 x1[7]
i16 1 x2[1]
i17 2 y1[7]
o0 bv[0]
c
simplified
  <=
    xor
      2 y1
      << 6
        1 x2
    add
      1
      1 x1
