words_hard_train/7819.qaiger.qdimacs
p cnf 93 226
a 64 1 2 4 36 6 77 48 81 60 0
e 3 5 7 8 9 10 11 12 13 14 15 16 17 18 19 20 21 22 23 24 25 26 27 28 29 30 31 32 33 34 35 37 38 39 40 41 42 43 44 45 46 47 49 50 51 52 53 54 55 56 57 58 59 61 62 63 65 66 67 68 69 70 71 72 73 74 75 76 78 79 80 82 83 84 85 86 87 88 89 90 91 92 93 0
-1 -2 3 0
1 -3 0
2 -3 0
-3 -4 5 0
3 -5 0
4 -5 0
5 6 7 0
-5 -7 0
-6 -7 0
-5 -6 8 0
5 -8 0
6 -8 0
7 8 9 0
-7 -9 0
-8 -9 0
10 11 12 0
-10 -12 0
-11 -12 0
-12 13 14 0
12 -14 0
-13 -14 0
14 -15 16 0
-14 -16 0
15 -16 0
-14 15 17 0
14 -17 0
-15 -17 0
16 17 18 0
-16 -18 0
-17 -18 0
-9 -18 19 0
9 -19 0
18 -19 0
-1 10 20 0
1 -20 0
-10 -20 0
20 -11 21 0
-20 -21 0
11 -21 0
-21 2 22 0
21 -22 0
-2 -22 0
12 3 23 0
-12 -23 0
-3 -23 0
22 -23 24 0
-22 -24 0
23 -24 0
3 4 25 0
-3 -25 0
-4 -25 0
25 5 26 0
-25 -26 0
-5 -26 0
12 -13 27 0
-12 -27 0
13 -27 0
27 14 28 0
-27 -28 0
-14 -28 0
26 28 29 0
-26 -29 0
-28 -29 0
-24 29 30 0
24 -30 0
-29 -30 0
19 30 31 0
-19 -31 0
-30 -31 0
-26 -28 32 0
26 -32 0
28 -32 0
-31 32 33 0
31 -33 0
-32 -33 0
9 18 34 0
-9 -34 0
-18 -34 0
33 34 35 0
-33 -35 0
-34 -35 0
8 36 37 0
-8 -37 0
-36 -37 0
-8 -36 38 0
8 -38 0
36 -38 0
37 38 39 0
-37 -39 0
-38 -39 0
17 -40 41 0
-17 -41 0
40 -41 0
-17 40 42 0
17 -42 0
-40 -42 0
41 42 43 0
-41 -43 0
-42 -43 0
-39 -43 44 0
39 -44 0
43 -44 0
35 44 45 0
-35 -45 0
-44 -45 0
39 43 46 0
-39 -46 0
-43 -46 0
45 46 47 0
-45 -47 0
-46 -47 0
38 48 49 0
-38 -49 0
-48 -49 0
-38 -48 50 0
38 -50 0
48 -50 0
49 50 51 0
-49 -51 0
-50 -51 0
42 -52 53 0
-42 -53 0
52 -53 0
-42 52 54 0
42 -54 0
-52 -54 0
53 54 55 0
-53 -55 0
-54 -55 0
-51 -55 56 0
51 -56 0
55 -56 0
47 56 57 0
-47 -57 0
-56 -57 0
51 55 58 0
-51 -58 0
-55 -58 0
57 58 59 0
-57 -59 0
-58 -59 0
50 60 61 0
-50 -61 0
-60 -61 0
-50 -60 62 0
50 -62 0
60 -62 0
61 62 63 0
-61 -63 0
-62 -63 0
-64 65 66 0
64 -66 0
-65 -66 0
64 -65 67 0
-64 -67 0
65 -67 0
66 67 68 0
-66 -68 0
-67 -68 0
68 54 69 0
-68 -69 0
-54 -69 0
-68 -54 70 0
68 -70 0
54 -70 0
69 70 71 0
-69 -71 0
-70 -71 0
-63 -71 72 0
63 -72 0
71 -72 0
59 72 73 0
-59 -73 0
-72 -73 0
63 71 74 0
-63 -74 0
-71 -74 0
73 74 75 0
-73 -75 0
-74 -75 0
-75 -70 76 0
75 -76 0
70 -76 0
-62 77 78 0
62 -78 0
-77 -78 0
62 -77 79 0
-62 -79 0
77 -79 0
78 79 80 0
-78 -80 0
-79 -80 0
-81 82 83 0
81 -83 0
-82 -83 0
81 -82 84 0
-81 -84 0
82 -84 0
83 84 85 0
-83 -85 0
-84 -85 0
-80 85 86 0
80 -86 0
-85 -86 0
76 86 87 0
-76 -87 0
-86 -87 0
75 70 88 0
-75 -88 0
-70 -88 0
80 -85 89 0
-80 -89 0
85 -89 0
88 89 90 0
-88 -90 0
-89 -90 0
-87 90 91 0
87 -91 0
-90 -91 0
-76 -86 92 0
76 -92 0
86 -92 0
91 92 93 0
-91 -93 0
-92 -93 0
93 0
